min: di + d1 + d2 + d3 + d4 + d5 + d6 + d7 + d8 + d9 + d10 + d11 + d12 + d13 + df;

// CALCULO DE DISTANCIAS 

di = 3.00 xi_1 + 4.24 xi_2 + 6.32 xi_3 + 8.25 xi_4 + 5.66 xi_5 + 6.00 xi_6 + 10.00 xi_7 + 9.85 xi_8 + 10.00 xi_9 + 10.20 xi_10 + 11.18 xi_11 + 12.81 xi_12 + 7.21 xi_13 + 14.42 xi_f;
d1 = 3.00 x1_i + 3.00 x1_2 + 6.08 x1_3 + 8.06 x1_4 + 4.12 x1_5 + 3.00 x1_6 + 8.54 x1_7 + 7.21 x1_8 + 7.00 x1_9 + 7.28 x1_10 + 8.60 x1_11 + 10.63 x1_12 + 5.00 x1_13 + 5.00 x1_f;
d2 = 4.24 x2_i + 3.00 x2_1 + 3.16 x2_3 + 5.10 x2_4 + 1.41 x2_5 + 4.24 x2_6 + 5.83 x2_7 + 6.08 x2_8 + 7.62 x2_9 + 7.07 x2_10 + 7.28 x2_11 + 8.60 x2_12 + 3.16 x2_13 + 10.30 x2_f;
d3 = 6.32 x3_i + 6.08 x3_1 + 3.16 x3_2 + 2.00 x3_4 + 2.83 x3_5 + 7.21 x3_6 + 4.47 x3_7 + 7.28 x3_8 + 10.00 x3_9 + 8.94 x3_10 + 8.06 x3_11 + 8.25 x3_12 + 4.47 x3_13 + 10.20 x3_f;
d4 = 8.25 x4_i + 8.06 x4_1 + 5.10 x4_2 + 2.00 x4_3 + 4.47 x4_5 + 8.94 x4_6 + 4.00 x4_7 + 8.06 x4_8 + 11.31 x4_9 + 10.00 x4_10 + 8.54 x4_11 + 8.00 x4_12 + 5.66 x4_13 + 10.00 x4_f;
d5 = 5.66 x5_i + 4.12 x5_1 + 1.41 x5_2 + 2.83 x5_3 + 4.47 x5_4 + 4.47 x5_6 + 4.47 x5_7 + 5.00 x5_8 + 7.21 x5_9 + 6.32 x5_10 + 6.08 x5_11 + 7.21 x5_12 + 2.00 x5_13 + 8.94 x5_f;
d6 = 6.00 x6_i + 3.00 x6_1 + 4.24 x6_2 + 7.21 x6_3 + 8.94 x6_4 + 4.47 x6_5 + 8.00 x6_7 + 5.00 x6_8 + 4.00 x6_9 + 4.47 x6_10 + 6.40 x6_11 + 8.94 x6_12 + 4.00 x6_13 + 10.00 x6_f;
d7 = 10.00 x7_i + 8.54 x7_1 + 5.83 x7_2 + 4.47 x7_3 + 4.00 x7_4 + 4.47 x7_5 + 8.00 x7_6 + 5.00 x7_8 + 8.94 x7_9 + 7.21 x7_10 + 5.00 x7_11 + 4.00 x7_12 + 4.00 x7_13 + 6.00 x7_f;
d8 = 9.85 x8_i + 7.21 x8_1 + 6.08 x8_2 + 7.28 x8_3 + 8.06 x8_4 + 5.00 x8_5 + 5.00 x8_6 + 5.00 x8_7 + 4.12 x8_9 + 2.24 x8_10 + 1.41 x8_11 + 4.12 x8_12 + 3.00 x8_13 + 5.00 x8_f;
d9 = 10.00 x9_i + 7.00 x9_1 + 7.62 x9_2 + 10.00 x9_3 + 11.31 x9_4 + 7.21 x9_5 + 4.00 x9_6 + 8.94 x9_7 + 4.12 x9_8 + 2.00 x9_10 + 5.00 x9_11 + 8.00 x9_12 + 5.66 x9_13 + 8.25 x9_f;
d10 = 10.20 x10_i + 7.28 x10_1 + 7.07 x10_2 + 8.94 x10_3 + 10.00 x10_4 + 6.32 x10_5 + 4.47 x10_6 + 7.21 x10_7 + 2.24 x10_8 + 2.00 x10_9 + 3.00 x10_11 + 6.00 x10_12 + 4.47 x10_13 + 6.32 x10_f;
d11 = 11.18 x11_i + 8.60 x11_1 + 7.28 x11_2 + 8.06 x11_3 + 8.54 x11_4 + 6.08 x11_5 + 6.40 x11_6 + 5.00 x11_7 + 1.41 x11_8 + 5.00 x11_9 + 3.00 x11_10 + 3.00 x11_12 + 4.12 x11_13 + 3.61 x11_f;
d12 = 12.81 x12_i + 10.63 x12_1 + 8.60 x12_2 + 8.25 x12_3 + 8.00 x12_4 + 7.21 x12_5 + 8.94 x12_6 + 4.00 x12_7 + 4.12 x12_8 + 8.00 x12_9 + 6.00 x12_10 + 3.00 x12_11 + 5.66 x12_13 + 2.00 x12_f;
d13 = 7.21 x13_i + 5.00 x13_1 + 3.16 x13_2 + 4.47 x13_3 + 5.66 x13_4 + 2.00 x13_5 + 4.00 x13_6 + 4.00 x13_7 + 3.00 x13_8 + 5.66 x13_9 + 4.47 x13_10 + 4.12 x13_11 + 5.66 x13_12 + 7.21 x13_f;
df = 14.42 xf_i + 5.00 xf_1 + 10.30 xf_2 + 10.20 xf_3 + 10.00 xf_4 + 8.94 xf_5 + 10.00 xf_6 + 6.00 xf_7 + 5.00 xf_8 + 8.25 xf_9 + 6.32 xf_10 + 3.61 xf_11 + 2.00 xf_12 + 7.21 xf_13;

// DISTANCIAS EUCLIDEANAS

// Restricoes 

// CAMINHO A FAZER
resti_1: xi_1 + x1_i >= 1; //
rest1_6: x1_6 + x6_1 >= 1; //
rest6_9: x6_9 + x9_6 >= 1; //
rest9_f: x9_f + xf_9 >= 1; //
resti_4: xi_4 + x4_i >= 1; //
rest4_3: x4_3 + x3_4 >= 1; //
rest3_2: x3_2 + x2_3 >= 1; //
rest2_1: x2_1 + x1_2 >= 1; //
rest3_5: x3_5 + x5_3 >= 1; //
rest5_2: x5_2 + x2_5 >= 1; //
rest4_7: x4_7 + x7_4 >= 1; //
rest7_13: x7_13 + x13_7 >= 1; //
rest13_6: x13_6 + x6_13 >= 1; //
rest7_12: x7_12 + x12_7 >= 1; //
rest13_8: x13_8 + x8_13 >= 1; //
rest12_11: x12_11 + x11_12 >= 1; //
rest11_8: x11_8 + x8_11 >= 1; //
rest8_10: x8_10 + x10_8 >= 1; //
rest10_9: x10_9 + x9_10 >= 1; //
rest11_10: x11_10 + x10_11 >= 1; //
rest12_f: x12_f + xf_12 >= 1; //

// EVITAR CICLOS
// em I :
restci: x1_i + x2_i + x3_i + x4_i + x5_i + x6_i + x7_i + x8_i + x9_i + x10_i + x11_i + x12_i + x13_i + xf_i - xi_1 - xi_2 - xi_3 - xi_4 - xi_5 - xi_6 - xi_7 - xi_8 - xi_9 - xi_10 - xi_11 - xi_12 - xi_13 - xi_f = -1;

// outros :
restc1: xi_1 + x2_1 + x3_1 + x4_1 + x5_1 + x6_1 + x7_1 + x8_1 + x9_1 + x10_1 + x11_1 + x12_1 + x13_1 + xf_1 - x1_i - x1_2 - x1_3 - x1_4 - x1_5 - x1_6 - x1_7 - x1_8 - x1_9 - x1_10 - x1_11 - x1_12 - x1_13 - x1_f = 0;
restc2: xi_2 + x1_2 + x3_2 + x4_2 + x5_2 + x6_2 + x7_2 + x8_2 + x9_2 + x10_2 + x11_2 + x12_2 + x13_2 + xf_2 - x2_i - x2_1 - x2_3 - x2_4 - x2_5 - x2_6 - x2_7 - x2_8 - x2_9 - x2_10 - x2_11 - x2_12 - x2_13 - x2_f = 0;
restc3: xi_3 + x1_3 + x2_3 + x4_3 + x5_3 + x6_3 + x7_3 + x8_3 + x9_3 + x10_3 + x11_3 + x12_3 + x13_3 + xf_3 - x3_i - x3_1 - x3_2 - x3_4 - x3_5 - x3_6 - x3_7 - x3_8 - x3_9 - x3_10 - x3_11 - x3_12 - x3_13 - x3_f = 0;
restc4: xi_4 + x1_4 + x2_4 + x3_4 + x5_4 + x6_4 + x7_4 + x8_4 + x9_4 + x10_4 + x11_4 + x12_4 + x13_4 + xf_4 - x4_i - x4_1 - x4_2 - x4_3 - x4_5 - x4_6 - x4_7 - x4_8 - x4_9 - x4_10 - x4_11 - x4_12 - x4_13 - x4_f = 0;
restc5: xi_5 + x1_5 + x2_5 + x3_5 + x4_5 + x6_5 + x7_5 + x8_5 + x9_5 + x10_5 + x11_5 + x12_5 + x13_5 + xf_5 - x5_i - x5_1 - x5_2 - x5_3 - x5_4 - x5_6 - x5_7 - x5_8 - x5_9 - x5_10 - x5_11 - x5_12 - x5_13 - x5_f = 0;
restc6: xi_6 + x1_6 + x2_6 + x3_6 + x4_6 + x5_6 + x7_6 + x8_6 + x9_6 + x10_6 + x11_6 + x12_6 + x13_6 + xf_6 - x6_i - x6_1 - x6_2 - x6_3 - x6_4 - x6_5 - x6_7 - x6_8 - x6_9 - x6_10 - x6_11 - x6_12 - x6_13 - x6_f = 0;
restc7: xi_7 + x1_7 + x2_7 + x3_7 + x4_7 + x5_7 + x6_7 + x8_7 + x9_7 + x10_7 + x11_7 + x12_7 + x13_7 + xf_7 - x7_i - x7_1 - x7_2 - x7_3 - x7_4 - x7_5 - x7_6 - x7_8 - x7_9 - x7_10 - x7_11 - x7_12 - x7_13 - x7_f = 0;
restc8: xi_8 + x1_8 + x2_8 + x3_8 + x4_8 + x5_8 + x6_8 + x7_8 + x9_8 + x10_8 + x11_8 + x12_8 + x13_8 + xf_8 - x8_i - x8_1 - x8_2 - x8_3 - x8_4 - x8_5 - x8_6 - x8_7 - x8_9 - x8_10 - x8_11 - x8_12 - x8_13 - x8_f = 0;
restc9: xi_9 + x1_9 + x2_9 + x3_9 + x4_9 + x5_9 + x6_9 + x7_9 + x8_9 + x10_9 + x11_9 + x12_9 + x13_9 + xf_9 - x9_i - x9_1 - x9_2 - x9_3 - x9_4 - x9_5 - x9_6 - x9_7 - x9_8 - x9_10 - x9_11 - x9_12 - x9_13 - x9_f = 0;
restc10: xi_10 + x1_10 + x2_10 + x3_10 + x4_10 + x5_10 + x6_10 + x7_10 + x8_10 + x9_10 + x11_10 + x12_10 + x13_10 + xf_10 - x10_i - x10_1 - x10_2 - x10_3 - x10_4 - x10_5 - x10_6 - x10_7 - x10_8 - x10_9 - x10_11 - x10_12 - x10_13 - x10_f = 0;
restc11: xi_11 + x1_11 + x2_11 + x3_11 + x4_11 + x5_11 + x6_11 + x7_11 + x8_11 + x9_11 + x10_11 + x12_11 + x13_11 + xf_11 - x11_i - x11_1 - x11_2 - x11_3 - x11_4 - x11_5 - x11_6 - x11_7 - x11_8 - x11_9 - x11_10 - x11_12 - x11_13 - x11_f = 0;
restc12: xi_12 + x1_12 + x2_12 + x3_12 + x4_12 + x5_12 + x6_12 + x7_12 + x8_12 + x9_12 + x10_12 + x11_12 + x13_12 + xf_12 - x12_i - x12_1 - x12_2 - x12_3 - x12_4 - x12_5 - x12_6 - x12_7 - x12_8 - x12_9 - x12_10 - x12_11 - x12_13 - x12_f = 0;
restc13: xi_13 + x1_13 + x2_13 + x3_13 + x4_13 + x5_13 + x6_13 + x7_13 + x8_13 + x9_13 + x10_13 + x11_13 + x12_13 + xf_13 - x13_i - x13_1 - x13_2 - x13_3 - x13_4 - x13_5 - x13_6 - x13_7 - x13_8 - x13_9 - x13_10 - x13_11 - x13_12 - x13_f = 0;

// em F :
restcf: xi_f + x1_f + x2_f + x3_f + x4_f + x5_f + x6_f + x7_f + x8_f + x9_f + x10_f + + x11_f + x12_f + x13_f - xf_i - xf_1 - xf_2 - xf_3 - xf_4 - xf_5 - xf_6 - xf_7 - xf_8 - xf_9 - xf_10 - xf_11 - xf_12 - xf_13 = 1;

// INTEIROS
int xi_1 , xi_2 , xi_3 , xi_4 , xi_5 , xi_6 , xi_7 , xi_8 , xi_9 , xi_10 , xi_11 , xi_12 , xi_13 , xi_f;
int x1_i , x1_2 , x1_3 , x1_4 , x1_5 , x1_6 , x1_7 , x1_8 , x1_9 , x1_10 , x1_11 , x1_12 , x1_13 , x1_f;
int x2_i , x2_1 , x2_3 , x2_4 , x2_5 , x2_6 , x2_7 , x2_8 , x2_9 , x2_10 , x2_11 , x2_12 , x2_13 , x2_f;
int x3_i , x3_1 , x3_2 , x3_4 , x3_5 , x3_6 , x3_7 , x3_8 , x3_9 , x3_10 , x3_11 , x3_12 , x3_13 , x3_f;
int x4_i , x4_1 , x4_2 , x4_3 , x4_5 , x4_6 , x4_7 , x4_8 , x4_9 , x4_10 , x4_11 , x4_12 , x4_13 , x4_f;
int x5_i , x5_1 , x5_2 , x5_3 , x5_4 , x5_6 , x5_7 , x5_8 , x5_9 , x5_10 , x5_11 , x5_12 , x5_13 , x5_f;
int x6_i , x6_1 , x6_2 , x6_3 , x6_4 , x6_5 , x6_7 , x6_8 , x6_9 , x6_10 , x6_11 , x6_12 , x6_13 , x6_f;
int x7_i , x7_1 , x7_2 , x7_3 , x7_4 , x7_5 , x7_6 , x7_8 , x7_9 , x7_10 , x7_11 , x7_12 , x7_13 , x7_f;
int x8_i , x8_1 , x8_2 , x8_3 , x8_4 , x8_5 , x8_6 , x8_7 , x8_9 , x8_10 , x8_11 , x8_12 , x8_13 , x8_f;
int x9_i , x9_1 , x9_2 , x9_3 , x9_4 , x9_5 , x9_6 , x9_7 , x9_8 , x9_10 , x9_11 , x9_12 , x9_13 , x9_f;
int x10_i , x10_1 , x10_2 , x10_3 , x10_4 , x10_5 , x10_6 , x10_7 , x10_8 , x10_9 , x10_11 , x10_12 , x10_13 , x10_f;
int x11_i , x11_1 , x11_2 , x11_3 , x11_4 , x11_5 , x11_6 , x11_7 , x11_8 , x11_9 , x11_10 , x11_12 , x11_13 , x11_f;
int x12_i , x12_1 , x12_2 , x12_3 , x12_4 , x12_5 , x12_6 , x12_7 , x12_8 , x12_9 , x12_10 , x12_11 , x12_13 , x12_f;
int x13_i , x13_1 , x13_2 , x13_3 , x13_4 , x13_5 , x13_6 , x13_7 , x13_8 , x13_9 , x13_10 , x13_11 , x13_12 , x13_f;
int xf_i , xf_1 , xf_2 , xf_3 , xf_4 , xf_5 , xf_6 , xf_7 , xf_8 , xf_9 , xf_10 , xf_11 , xf_12 , xf_13;